1111100 AB
322 344 367 389 410 432 453 473 493 513 542 571 600 629 658 688 717 737 757 778 798 817 837 856 876 896 919 943 967 991 1016 1041 1066 1091 1115 1139 1162 1185 1208 1243 1279 1315 1348 1380 1413 6 38
1111100 BA
343 374 396 421 447 473 499 520 540 556 573 600 629 658 687 716 746 775 795 815 836 856 875 895 914 934 954 977 1001 1025 1052 1080 1105 1130 1155 1178 1201 1224 1247 1269 1297 1330 1366 1399 1431 30
0000011 AB
322 355 388 421 459 497 536 575 614 653 692 732 762 792 823 854 884 914 945 984 1024 1064 1105 1145 1186 1227 1262 1297 1331 1364 1396 1429 22
0000011 BA
374 407 442 480 518 556 595 634 673 712 753 794 824 854 885 916 946 976 1007 1046 1086 1126 1167 1207 1248 1284 1313 1348 1382 1415 7 40
